Route 1: 0 10 62 75 70 37 17 19 38 39 7 100 45 0
Route 2: 0 57 67 73 86 53 82 0
Route 3: 0 21 49 2 12 47 59 0
Route 4: 0 89 36 46 88 50 20 99 11 69 0
Route 5: 0 16 54 74 90 32 44 0
Route 6: 0 22 5 55 61 48 68 0
Route 7: 0 31 34 66 56 71 51 77 0
Route 8: 0 24 3 29 97 4 85 80 96 0
Route 9: 0 95 1 52 76 33 87 79 0
Route 10: 0 41 60 40 58 91 83 65 0
Route 11: 0 84 18 92 27 25 78 94 93 63 6 0
Route 12: 0 13 43 9 64 72 35 14 98 23 26 42 0
Route 13: 0 81 28 30 15 8 0
